Version identifier: 22.1.0.0 | 2022-03-09 | 1a383f8ce
CPXPARAM_Threads                                 1
CPXPARAM_MIP_Strategy_VariableSelect             3
CPXPARAM_TimeLimit                               599.99767423599997
Tried aggregator 1 time.
MIP Presolve eliminated 410 rows and 796 columns.
MIP Presolve modified 1 coefficients.
Reduced MIP has 995 rows, 1592 columns, and 11643 nonzeros.
Reduced MIP has 1592 binaries, 0 generals, 0 SOSs, and 0 indicators.
Presolve time = 0.01 sec. (8.16 ticks)
Probing time = 0.00 sec. (3.79 ticks)
Tried aggregator 1 time.
Detecting symmetries...
Reduced MIP has 995 rows, 1592 columns, and 11643 nonzeros.
Reduced MIP has 1592 binaries, 0 generals, 0 SOSs, and 0 indicators.
Presolve time = 0.01 sec. (6.95 ticks)
Probing time = 0.00 sec. (3.79 ticks)
Clique table members: 596.
MIP emphasis: balance optimality and feasibility.
MIP search method: dynamic search.
Parallel mode: none, using 1 thread.
Root relaxation solution time = 0.02 sec. (14.27 ticks)

        Nodes                                         Cuts/
   Node  Left     Objective  IInf  Best Integer    Best Bound    ItCnt     Gap

      0     0        0.0000   114                      0.0000      473         
*     0+    0                            0.0000        0.0000             0.00%
      0     0        cutoff              0.0000        0.0000      473    0.00%
Elapsed time = 0.15 sec. (121.74 ticks, tree = 0.01 MB, solutions = 1)

Root node processing (before b&c):
  Real time             =    0.15 sec. (121.81 ticks)
Sequential b&c:
  Real time             =    0.00 sec. (0.00 ticks)
                          ------------
Total (root+branch&cut) =    0.15 sec. (121.81 ticks)
Primal:	199
Dual:	199
Status:	Optimal
Time:	0.16421
Sequence:
	10
	4
	1
	4
	5
	9
	5
	4
	1
	4
	4
	10
	4
	5
	9
	10
	4
	1
	9
	1
	9
	1
	9
	5
	9
	10
	9
	10
	9
	1
	9
	5
	9
	5
	0
	5
	9
	5
	9
	10
	9
	1
	4
	9
	5
	9
	5
	9
	9
	5
	9
	4
	5
	9
	5
	9
	5
	9
	1
	9
	5
	9
	5
	9
	5
	0
	10
	9
	5
	9
	1
	0
	1
	9
	9
	1
	9
	9
	5
	4
	1
	9
	1
	9
	1
	4
	5
	0
	5
	9
	5
	0
	5
	4
	1
	0
	1
	4
	5
	9
	5
	0
	5
	4
	1
	0
	4
	5
	0
	3
	4
	0
	5
	4
	1
	0
	5
	9
	0
	5
	4
	1
	0
	1
	4
	5
	0
	5
	9
	5
	0
	10
	4
	10
	9
	1
	4
	5
	0
	9
	10
	4
	0
	5
	9
	0
	5
	4
	1
	4
	1
	9
	10
	0
	5
	4
	1
	0
	1
	4
	1
	0
	1
	9
	10
	0
	10
	9
	5
	0
	5
	9
	1
	4
	10
	4
	1
	0
	4
	10
	9
	5
	4
	1
	0
	1
	4
	1
	0
	9
	9
	5
	0
	9
	5
	8
	10
	4
	5
